0 16 0
2 0 5
3 2 4
11 15 2
15 3 3
16 11 1
next
0 9 7 0
0 26 9 4
0 44 13 1
0 50 20 2
0 53 19 1
0 69 5 0
0 74 4 3
0 82 18 2
0 86 17 0
1 9 8 0
1 9 10 0
1 26 10 4
1 44 21 1
1 50 20 2
1 53 12 1
1 69 5 0
1 74 14 3
1 82 6 2
1 86 1 0
